NAME : XML100_3153_01
DIMENSION : 101
NB_CLUSTERS : 21
CLUSTERING_ALG : KMeans
CLUSTERING_PARAMS : k(21)
CLUSTERS
1 0
2 29 43 51 95
3 8 42 61 71 76 93
4 7 11 21 41 48 62
5 6 31 40 72
6 4 38 53 63
7 2 24 36 59 81 99
8 13 18 19 39 55 66 78 79 84 85
9 14 15 17 22 26 69 100
10 37 44 46 56 60 80 89 98
11 10 33 49 73 74
12 25 54 58 67 77 90
13 3 45 52 88
14 27 28 97
15 50 68 82
16 57 83 87
17 1 5 12 20 91 92
18 9 32 35 64 75
19 23 65 96
20 70 86 94
21 16 30 34 47
EOF